56 96 5 70 86 51 16 7 39 88 47 65 91 29 62 45 11 82 17 52 32 57 0 4 3 92 85 44 97 71 73 43 42 64 77 59 50 94 12 41 10 24 19 79 38 75 53 21 48 93 58 63 27 89 6 35 95 87 99 72 46 81 28 80 98 74 8 67 37 18 49 36 13 68 83 84 20 30 2 55 1 15 78 23 34 22 69 14 40 90 60 66 26 25 31 76 54 9 61 33 

